__gmon_start__
_init
_fini
__cxa_finalize
_Jv_RegisterClasses
go_plugin_depends
go_plugin_header
gnm_solver_get_type
g_type_check_instance_cast
gnm_push_C_locale
gsf_input_stdio_new
gsf_input_textline_get_type
gsf_input_textline_new
g_object_unref
range_width
range_height
gnm_solver_result_get_type
g_object_new
value_new_array_empty
gsf_input_textline_utf8_gets
__isoc99_sscanf
gnm_solver_set_status
gnm_pop_C_locale
g_hash_table_size
value_new_float
value_array_set
g_object_set
gnm_sub_solver_get_type
g_return_if_fail_warning
gnm_conf_get_plugin_glpk_glpsol_path
gnm_sub_solver_spawn
g_spawn_error_quark
g_error_matches
g_clear_error
g_dgettext
g_set_error
g_unsetenv
g_getenv
g_setenv
gnm_sub_solver_clear
g_unlink
go_file_saver_for_mime_type
gnm_solver_saveas
g_file_open_tmp
close
g_file_error_quark
glpk_solver_factory_functional
g_find_program_in_path
gnm_sub_solver_locate_binary
gnm_conf_set_plugin_glpk_glpsol_path
g_file_test
glpk_solver_factory
g_malloc0
gnm_solver_param_get_input
gnm_sheet_range_from_value
g_signal_connect_data
g_object_set_data_full
gnm_sub_solver_get_cell_name
value_dup
g_slist_prepend
value_new_int
gnm_cell_set_value
cell_queue_recalc
g_slist_reverse
value_get_as_float
g_string_append
go_error_invalid
gnm_cell_eval_content
gnm_string_add_number
g_slist_free
g_string_insert_c
glpk_file_save
wb_view_cur_sheet
g_object_get_data
go_io_progress_message
g_string_new
gnm_solver_param_get_target_cell
gnm_solver_param_get_input_cells
g_strdup_printf
gnm_sub_solver_name_cell
g_slist_length
go_io_count_progress_set
go_io_count_progress_update
g_string_append_printf
g_assertion_message
g_string_free
workbook_recalc
go_cmd_context_get_type
go_cmd_context_error_import
go_io_progress_unset
g_error_free
gnm_solver_constraint_get_part
go_string_append_gstring
gsf_output_write
libm.so.6
libc.so.6
_edata
__bss_start
_end
glpk.so
GLIBC_2.1.3
GLIBC_2.0
GLIBC_2.7
[^_]
[^_]
d$<[^_]
[^_]
d$<1
[^_]
d$<1
[^_]
[^_]
d$l[^_]
[^_]
goffice
gnumeric
1.10.11
munG
%u %u
%d %d %lg
%u %lg %lg
result
glpsol
--scale
--noscale
--write
--cpxlp
LC_ALL
LC_MESSAGES
LC_CTYPE
LC_NUMERIC
LANG
application/glpk
program-XXXXXX.cplex
program-XXXXXX.out
Gnu Linear Programming Kit
params
prepare
start
stop
child-exit
::glpk::
The %s program was not found.  You can either install it or use another solver. For more information see %s
http://www.gnu.org/software/glpk/
sol->status == GNM_SOLVER_STATUS_PREPARED
sol->status != GNM_SOLVER_STATUS_RUNNING
The GLPK exporter is not available.
Failed to create file for solution
sol->status == GNM_SOLVER_STATUS_READY
gnm_glpk_stop
gnm_glpk_start
gnm_glpk_prepare
Target cell did not evaluate to a number.
solver
Writing glpk file...
X_%u
Minimize
Maximize
glpk-write.c
 obj: 
 %s >= 0
\ Created by Gnumeric %s
Subject to
General
Binary
glpk_create_program
glpk.so.debug
.rodata
.shstrtab
.dynamic
.note.gnu.build-id
.eh_frame
.gnu.hash
.fini
.gnu_debuglink
.dynsym
.gnu.version
.rel.dyn
.data.rel.ro
.gnu.version_r
.jcr
.eh_frame_hdr
.dynstr
.ctors
.dtors
.bss
.init
.rel.plt
.got.plt
.got
.text
